5798.0, 5798.0, 5798.0, 5071.0, 4111.0, 4107.0, 3153.0, 3140.0, 2189.0, 2181.0, 2180.0, 1229.0, 1216.0, 1210.0, 1208.0, 253, 253, 251, 247, 247, 239, 237, 231, 230, 224, 216, 216, 210, 209, 204, 202, 195, 195, 191, 187, 186, 181, 179, 172, 168, 168, 166, 166, 164, 163, 160, 159, 155, 154, 146, 146, 146, 144, 142, 142, 141, 139, 139, 132, 132, 127, 127, 127, 127, 125, 124, 124, 122, 122, 120, 118, 116, 116, 116, 116, 114, 112, 112, 110, 110, 110, 108, 108, 106, 105, 104, 104, 101, 101, 101, 101, 101, 100, 98, 96, 96, 96, 93, 93, 93, 93, 93, 93, 91, 91, 91, 91, 91, 91, 89, 89, 89, 89, 89, 87, 87, 87, 87, 87, 87, 87, 87, 87, 87, 87, 87, 87, 87, 87, 87, 87, 87, 87, 87, 87, 86, 86, 86, 86, 86, 86, 86, 86, 86, 86, 86, 86, 86, 86, 86, 86, 86, 86, 86, 84, 84, 84, 84, 84, 84, 84, 84, 84, 84, 84, 84, 84, 83, 83, 83, 83, 83, 83, 83, 83, 83, 83, 83, 83, 83, 83, 83, 82, 82, 82, 82, 81, 81, 81, 81, 80, 80, 80, 80, 80, 80, 79, 79, 79, 79, 
penalties info:
(0, 0, 0)
7
0
2
0
0
